StudentsNr = 10;
InstructorsNr = 23;
DaysNr = 1;
SlotsPerDay = 15;
AvailabilitySlotsLenght = 15;
RoomNr = 2;
ProgrammNr = 1;
DegreeNr = 2;
RolesNr = 0;
CoursesNr = 10;
InstructorsProgramm = [{1}, {1}, {1}, {1}, {1}, {1}, {1}, {1}, {1}, {1}, {1}, {1}, {1}, {1}, {1}, {1}, {1}, {1}, {1}, {1}, {1}, {1}, {1}];
InstructorRolesPerProgramm = array2d(1..ProgrammNr,{},[]);
InstructorsAvailability = [|1, |1, |1, |0, |1, |0, |1, |0, |1, |1, |1, |0, |1, |0, |1, |1, |0, |1, |0, |0, |0, |0, |1|];
StudentsProgramm = [1, 1, 1, 1, 1, 1, 1, 1, 1, 1];
StudentsDegree = [1, 2, 1, 1, 2, 1, 1, 2, 1, 1];
StudentsSupervisorId = [13, 18, 9, 1, 21, 14, 9, 20, 3, 2];
StudentsCourseIds = [{1, 2, 3, 4, 5, 6, 8, 9, 10}, {1, 3, 4, 5, 9}, {1, 2, 3, 4, 5, 6, 7, 9, 10}, {1, 3, 4, 5, 6, 7, 8, 9, 10}, {3, 5, 6, 7, 8}, {1, 2, 3, 4, 5, 7, 8, 9, 10}, {1, 2, 3, 4, 5, 6, 8, 9, 10}, {1, 3, 5, 8, 9}, {1, 2, 3, 4, 5, 6, 7, 9, 10}, {1, 2, 3, 5, 6, 7, 8, 9, 10}];
StudentsAvailability = [|0, |0, |1, |1, |0, |0, |0, |1, |1, |1|];
TheoryticalMinCard = [9, 5, 9, 9, 5, 9, 9, 5, 9, 9];
CoursesInstructorIds = [{3, 4, 5, 6, 7, 8, 9, 10, 11, 13, 16, 17, 20, 21, 22}, {1, 2, 4, 6, 7, 9, 15, 17, 19, 20, 23}, {2, 3, 5, 6, 11, 13, 16, 17, 18, 23}, {4, 12, 13, 14, 18, 22, 23}, {2, 3, 17, 18, 21, 23}, {6}, {9, 17, 23}, {8, 17}, {8, 16, 19, 23}, {1, 2, 6, 9, 11, 14, 15, 16, 17, 18, 19, 20, 21, 22, 23}];
RolesDemands = [];
RolesContinuity = [];
ExamLen = [1, 2, 1, 1, 2, 1, 1, 2, 1, 1];
LunchTsMinLen = 0;
LunchStarts = [3..10];
SupervisorAvailable = 0;
OptimalLunchLenght = [0, 0];
OptimalStartTs = [2, 0];
OptimalFinishTs = [1, 15];
MinimizeRooms = 0;
RolesSoftContinuity = array2d(1..2,{},[]);
SameDegreeInRoom = 10;
Mergeability = 2;
